
  27    4
   1   1   1   1

   0   0   0   0   0  14 2 3 4 5 6 7 8 9 10 11 12 13 25 26 
   4   1   1   0   0   5   22   20   19   16   14
   1   1   0   1   0   5   22   21   17   16   15
   4   0   1   0   0   4   21   18   17   14
   8   0   1   1   0   3   24   15   14
   8   1   0   0   0   3   20   16   14
   9   0   0   1   1   2   15   14
   6   1   1   1   0   2   23   17
   1   1   1   0   0   2   16   14
   5   1   0   0   0   1   14
   5   0   0   1   0   1   15
   2   1   0   1   0   1   19
   1   1   0   1   0   1   18
   4   0   1   0   0   1   27
   10   1   1   1   1   1   27
   8   1   0   1   1   1   27
   1   1   1   1   1   1   27
   7   1   0   0   1   1   27
   4   1   0   1   0   1   27
   4   0   1   0   0   1   27
   5   1   1   1   0   1   27
   5   1   0   0   0   1   27
   7   1   1   0   0   1   27
   7   1   0   1   1   1   27
   10   0   1   0   1   1   27
   8   0   0   1   1   1   27
   0   0   0   0   0   0 
